Traveling Salesman Problem/TSP_generados/Aleatorio1621103428_14.tsp
NAME: Aleatorio1621103428_14.tsp
COMMENT: Randomly generated scenario
TYPE: TSP
DIMENSION: 14
EDGE_WEIGHT_TYPE: ATT
NODE_COORD_SECTION
1 48.0 44.76
2 23.85 31.63
3 36.92 25.75
4 20.27 36.05
5 30.34 30.53
6 4.99 0.67
7 7.94 1.92
8 21.33 28.88
9 38.78 0.47
10 8.05 7.2
11 24.35 29.52
12 37.74 30.56
13 2.49 0.03
14 22.48 24.85
