Traveling Salesman Problem/TSP_generados/Aleatorio1621103428_14.opt.tour
NAME: Aleatorio1621103428_14.opt.tour
COMMENT: Optimal solution for Aleatorio1621103428_14 (164.325677146677)
TYPE: TOUR
DIMENSION: 14
TOUR_SECTION
1 12 3 9 7 6 13 10 14 8 4 2 11 5
-1
EOF
